HUN,8,6,990
2,1,1,30,0,6,4,20,5,17,3,17
2,11,0,18,1,8,3,20,5,4,4,1
1,4,2,14,0,3,4,22,5,30,3,1
1,23,2,28,0,21,4,21,5,2,3,4
1,7,2,24,0,14,3,27,4,17,5,27
1,20,0,15,2,16,4,7,5,26,3,27
2,12,1,3,0,20,5,29,4,18,3,15
1,4,0,8,2,9,5,28,4,14,3,15
